80 3160
1 2 201
1 3 207
1 4 56
1 5 4
1 6 48
1 7 112
1 8 120
1 9 163
1 10 188
1 11 98
1 12 202
1 13 72
1 14 110
1 15 191
1 16 172
1 17 61
1 18 233
1 19 122
1 20 48
1 21 238
1 22 100
1 23 230
1 24 84
1 25 59
1 26 148
1 27 119
1 28 204
1 29 184
1 30 169
1 31 133
1 32 230
1 33 229
1 34 18
1 35 198
1 36 50
1 37 184
1 38 236
1 39 226
1 40 48
1 41 53
1 42 5
1 43 80
1 44 35
1 45 112
1 46 219
1 47 161
1 48 12
1 49 82
1 50 15
1 51 134
1 52 212
1 53 90
1 54 28
1 55 137
1 56 208
1 57 109
1 58 128
1 59 133
1 60 69
1 61 235
1 62 185
1 63 118
1 64 227
1 65 132
1 66 76
1 67 30
1 68 30
1 69 204
1 70 230
1 71 153
1 72 160
1 73 218
1 74 122
1 75 160
1 76 112
1 77 63
1 78 153
1 79 207
1 80 181
2 3 66
2 4 121
2 5 71
2 6 33
2 7 8
2 8 58
2 9 178
2 10 103
2 11 222
2 12 24
2 13 25
2 14 126
2 15 107
2 16 64
2 17 153
2 18 220
2 19 206
2 20 47
2 21 167
2 22 5
2 23 171
2 24 18
2 25 39
2 26 96
2 27 132
2 28 162
2 29 50
2 30 96
2 31 57
2 32 113
2 33 144
2 34 227
2 35 1
2 36 51
2 37 1
2 38 27
2 39 161
2 40 32
2 41 31
2 42 194
2 43 86
2 44 74
2 45 221
2 46 89
2 47 81
2 48 67
2 49 1
2 50 65
2 51 207
2 52 161
2 53 49
2 54 33
2 55 11
2 56 11
2 57 205
2 58 183
2 59 229
2 60 164
2 61 214
2 62 125
2 63 81
2 64 201
2 65 29
2 66 107
2 67 124
2 68 3
2 69 94
2 70 38
2 71 174
2 72 92
2 73 152
2 74 193
2 75 41
2 76 1
2 77 220
2 78 80
2 79 235
2 80 189
3 4 237
3 5 25
3 6 120
3 7 163
3 8 10
3 9 73
3 10 68
3 11 28
3 12 144
3 13 34
3 14 41
3 15 0
3 16 184
3 17 158
3 18 206
3 19 1
3 20 78
3 21 193
3 22 36
3 23 118
3 24 120
3 25 189
3 26 181
3 27 128
3 28 3
3 29 7
3 30 160
3 31 88
3 32 181
3 33 99
3 34 94
3 35 108
3 36 10
3 37 221
3 38 151
3 39 43
3 40 167
3 41 94
3 42 101
3 43 140
3 44 236
3 45 35
3 46 226
3 47 210
3 48 90
3 49 31
3 50 48
3 51 207
3 52 217
3 53 146
3 54 114
3 55 14
3 56 118
3 57 230
3 58 131
3 59 154
3 60 172
3 61 101
3 62 12
3 63 65
3 64 69
3 65 54
3 66 202
3 67 238
3 68 234
3 69 49
3 70 100
3 71 3
3 72 22
3 73 133
3 74 139
3 75 147
3 76 227
3 77 98
3 78 167
3 79 139
3 80 0
4 5 197
4 6 100
4 7 43
4 8 193
4 9 218
4 10 85
4 11 208
4 12 237
4 13 13
4 14 79
4 15 42
4 16 151
4 17 2
4 18 207
4 19 120
4 20 75
4 21 28
4 22 177
4 23 83
4 24 210
4 25 109
4 26 87
4 27 114
4 28 218
4 29 80
4 30 123
4 31 78
4 32 7
4 33 111
4 34 225
4 35 173
4 36 233
4 37 138
4 38 103
4 39 31
4 40 116
4 41 150
4 42 192
4 43 17
4 44 1
4 45 197
4 46 54
4 47 214
4 48 21
4 49 74
4 50 105
4 51 139
4 52 15
4 53 205
4 54 227
4 55 211
4 56 236
4 57 117
4 58 235
4 59 39
4 60 73
4 61 121
4 62 32
4 63 146
4 64 195
4 65 195
4 66 201
4 67 62
4 68 25
4 69 54
4 70 56
4 71 174
4 72 101
4 73 154
4 74 194
4 75 129
4 76 88
4 77 203
4 78 85
4 79 158
4 80 75
5 6 54
5 7 111
5 8 118
5 9 166
5 10 33
5 11 226
5 12 75
5 13 133
5 14 129
5 15 184
5 16 109
5 17 71
5 18 226
5 19 231
5 20 205
5 21 148
5 22 205
5 23 220
5 24 3
5 25 234
5 26 184
5 27 168
5 28 192
5 29 207
5 30 165
5 31 124
5 32 124
5 33 54
5 34 60
5 35 131
5 36 121
5 37 156
5 38 73
5 39 175
5 40 145
5 41 172
5 42 198
5 43 1
5 44 231
5 45 49
5 46 30
5 47 38
5 48 83
5 49 46
5 50 86
5 51 97
5 52 49
5 53 150
5 54 76
5 55 215
5 56 102
5 57 53
5 58 199
5 59 44
5 60 18
5 61 60
5 62 185
5 63 29
5 64 95
5 65 233
5 66 154
5 67 21
5 68 236
5 69 58
5 70 239
5 71 151
5 72 53
5 73 34
5 74 19
5 75 76
5 76 197
5 77 87
5 78 133
5 79 208
5 80 161
6 7 32
6 8 219
6 9 118
6 10 143
6 11 49
6 12 98
6 13 182
6 14 108
6 15 155
6 16 115
6 17 122
6 18 163
6 19 93
6 20 163
6 21 132
6 22 138
6 23 152
6 24 229
6 25 24
6 26 63
6 27 56
6 28 77
6 29 130
6 30 6
6 31 121
6 32 105
6 33 181
6 34 88
6 35 63
6 36 81
6 37 218
6 38 92
6 39 44
6 40 68
6 41 114
6 42 150
6 43 135
6 44 42
6 45 31
6 46 94
6 47 115
6 48 14
6 49 176
6 50 173
6 51 111
6 52 228
6 53 135
6 54 94
6 55 216
6 56 221
6 57 217
6 58 80
6 59 231
6 60 146
6 61 140
6 62 24
6 63 26
6 64 103
6 65 195
6 66 48
6 67 157
6 68 235
6 69 201
6 70 138
6 71 1
6 72 145
6 73 187
6 74 233
6 75 92
6 76 217
6 77 38
6 78 106
6 79 157
6 80 32
7 8 190
7 9 122
7 10 135
7 11 177
7 12 128
7 13 89
7 14 188
7 15 86
7 16 72
7 17 36
7 18 74
7 19 76
7 20 31
7 21 157
7 22 26
7 23 11
7 24 110
7 25 123
7 26 157
7 27 69
7 28 59
7 29 6
7 30 191
7 31 99
7 32 151
7 33 238
7 34 103
7 35 233
7 36 47
7 37 50
7 38 167
7 39 143
7 40 138
7 41 84
7 42 200
7 43 221
7 44 146
7 45 5
7 46 183
7 47 210
7 48 136
7 49 78
7 50 83
7 51 128
7 52 117
7 53 227
7 54 7
7 55 154
7 56 236
7 57 218
7 58 122
7 59 44
7 60 80
7 61 32
7 62 213
7 63 192
7 64 33
7 65 212
7 66 212
7 67 111
7 68 2
7 69 206
7 70 207
7 71 193
7 72 107
7 73 150
7 74 131
7 75 47
7 76 0
7 77 224
7 78 87
7 79 24
7 80 230
8 9 68
8 10 107
8 11 197
8 12 158
8 13 85
8 14 179
8 15 69
8 16 64
8 17 134
8 18 175
8 19 190
8 20 141
8 21 122
8 22 154
8 23 101
8 24 206
8 25 9
8 26 84
8 27 47
8 28 2
8 29 15
8 30 51
8 31 171
8 32 81
8 33 105
8 34 41
8 35 45
8 36 229
8 37 74
8 38 15
8 39 127
8 40 201
8 41 2
8 42 164
8 43 115
8 44 40
8 45 3
8 46 152
8 47 143
8 48 24
8 49 219
8 50 48
8 51 213
8 52 21
8 53 108
8 54 58
8 55 50
8 56 137
8 57 5
8 58 22
8 59 29
8 60 238
8 61 233
8 62 221
8 63 204
8 64 10
8 65 66
8 66 132
8 67 98
8 68 25
8 69 6
8 70 60
8 71 231
8 72 99
8 73 168
8 74 158
8 75 141
8 76 48
8 77 229
8 78 75
8 79 47
8 80 107
9 10 46
9 11 114
9 12 59
9 13 215
9 14 199
9 15 221
9 16 70
9 17 186
9 18 25
9 19 229
9 20 88
9 21 82
9 22 135
9 23 31
9 24 29
9 25 69
9 26 46
9 27 161
9 28 5
9 29 177
9 30 98
9 31 127
9 32 34
9 33 172
9 34 8
9 35 100
9 36 201
9 37 225
9 38 210
9 39 189
9 40 117
9 41 185
9 42 175
9 43 179
9 44 105
9 45 204
9 46 200
9 47 53
9 48 116
9 49 91
9 50 8
9 51 52
9 52 233
9 53 9
9 54 31
9 55 133
9 56 20
9 57 56
9 58 94
9 59 102
9 60 196
9 61 165
9 62 161
9 63 97
9 64 137
9 65 118
9 66 60
9 67 221
9 68 158
9 69 105
9 70 10
9 71 24
9 72 202
9 73 127
9 74 176
9 75 85
9 76 43
9 77 155
9 78 37
9 79 153
9 80 235
10 11 117
10 12 86
10 13 181
10 14 228
10 15 221
10 16 33
10 17 40
10 18 85
10 19 172
10 20 179
10 21 17
10 22 124
10 23 227
10 24 239
10 25 86
10 26 14
10 27 163
10 28 100
10 29 59
10 30 188
10 31 222
10 32 76
10 33 159
10 34 74
10 35 23
10 36 108
10 37 41
10 38 133
10 39 35
10 40 175
10 41 157
10 42 214
10 43 28
10 44 223
10 45 75
10 46 32
10 47 159
10 48 217
10 49 235
10 50 58
10 51 33
10 52 27
10 53 121
10 54 214
10 55 67
10 56 109
10 57 57
10 58 223
10 59 113
10 60 223
10 61 92
10 62 137
10 63 106
10 64 79
10 65 106
10 66 219
10 67 116
10 68 187
10 69 113
10 70 153
10 71 40
10 72 235
10 73 7
10 74 150
10 75 96
10 76 66
10 77 139
10 78 169
10 79 159
10 80 6
11 12 82
11 13 25
11 14 139
11 15 179
11 16 89
11 17 50
11 18 50
11 19 108
11 20 13
11 21 186
11 22 63
11 23 133
11 24 150
11 25 168
11 26 206
11 27 163
11 28 43
11 29 55
11 30 129
11 31 205
11 32 173
11 33 191
11 34 192
11 35 154
11 36 168
11 37 85
11 38 181
11 39 146
11 40 80
11 41 55
11 42 226
11 43 208
11 44 132
11 45 83
11 46 157
11 47 20
11 48 55
11 49 168
11 50 102
11 51 163
11 52 39
11 53 13
11 54 236
11 55 158
11 56 224
11 57 237
11 58 18
11 59 37
11 60 6
11 61 2
11 62 115
11 63 83
11 64 178
11 65 31
11 66 46
11 67 162
11 68 220
11 69 220
11 70 118
11 71 140
11 72 141
11 73 208
11 74 99
11 75 143
11 76 175
11 77 15
11 78 144
11 79 91
11 80 12
12 13 168
12 14 161
12 15 167
12 16 125
12 17 61
12 18 134
12 19 13
12 20 2
12 21 8
12 22 151
12 23 214
12 24 225
12 25 178
12 26 201
12 27 83
12 28 96
12 29 235
12 30 118
12 31 128
12 32 189
12 33 170
12 34 68
12 35 12
12 36 200
12 37 142
12 38 173
12 39 105
12 40 112
12 41 109
12 42 185
12 43 84
12 44 83
12 45 52
12 46 20
12 47 160
12 48 82
12 49 148
12 50 127
12 51 38
12 52 155
12 53 86
12 54 32
12 55 170
12 56 10
12 57 130
12 58 88
12 59 59
12 60 174
12 61 33
12 62 185
12 63 89
12 64 83
12 65 57
12 66 151
12 67 101
12 68 236
12 69 239
12 70 100
12 71 168
12 72 239
12 73 204
12 74 193
12 75 225
12 76 178
12 77 206
12 78 203
12 79 154
12 80 138
13 14 60
13 15 8
13 16 28
13 17 176
13 18 232
13 19 116
13 20 69
13 21 140
13 22 212
13 23 173
13 24 209
13 25 136
13 26 109
13 27 156
13 28 11
13 29 135
13 30 232
13 31 2
13 32 2
13 33 152
13 34 200
13 35 190
13 36 176
13 37 167
13 38 63
13 39 201
13 40 208
13 41 84
13 42 24
13 43 213
13 44 100
13 45 138
13 46 144
13 47 202
13 48 168
13 49 204
13 50 137
13 51 207
13 52 228
13 53 74
13 54 73
13 55 157
13 56 9
13 57 97
13 58 23
13 59 101
13 60 33
13 61 129
13 62 123
13 63 204
13 64 239
13 65 166
13 66 61
13 67 151
13 68 178
13 69 4
13 70 175
13 71 194
13 72 113
13 73 228
13 74 236
13 75 155
13 76 83
13 77 4
13 78 138
13 79 120
13 80 107
14 15 33
14 16 226
14 17 228
14 18 206
14 19 14
14 20 92
14 21 188
14 22 185
14 23 233
14 24 237
14 25 18
14 26 3
14 27 143
14 28 32
14 29 78
14 30 127
14 31 59
14 32 25
14 33 104
14 34 141
14 35 19
14 36 184
14 37 186
14 38 88
14 39 224
14 40 70
14 41 171
14 42 91
14 43 17
14 44 50
14 45 115
14 46 2
14 47 105
14 48 28
14 49 227
14 50 107
14 51 115
14 52 96
14 53 118
14 54 217
14 55 219
14 56 91
14 57 178
14 58 225
14 59 220
14 60 154
14 61 91
14 62 152
14 63 55
14 64 120
14 65 167
14 66 212
14 67 76
14 68 165
14 69 62
14 70 87
14 71 70
14 72 141
14 73 57
14 74 41
14 75 219
14 76 190
14 77 42
14 78 13
14 79 134
14 80 108
15 16 45
15 17 195
15 18 73
15 19 7
15 20 72
15 21 76
15 22 60
15 23 114
15 24 191
15 25 127
15 26 20
15 27 4
15 28 194
15 29 127
15 30 59
15 31 208
15 32 159
15 33 52
15 34 135
15 35 189
15 36 19
15 37 9
15 38 60
15 39 138
15 40 22
15 41 158
15 42 97
15 43 205
15 44 49
15 45 189
15 46 52
15 47 108
15 48 83
15 49 149
15 50 80
15 51 77
15 52 6
15 53 225
15 54 30
15 55 59
15 56 218
15 57 139
15 58 116
15 59 176
15 60 220
15 61 14
15 62 29
15 63 116
15 64 148
15 65 51
15 66 121
15 67 217
15 68 86
15 69 223
15 70 83
15 71 143
15 72 205
15 73 135
15 74 40
15 75 165
15 76 40
15 77 192
15 78 82
15 79 5
15 80 207
16 17 31
16 18 48
16 19 5
16 20 134
16 21 94
16 22 185
16 23 191
16 24 191
16 25 26
16 26 212
16 27 8
16 28 47
16 29 61
16 30 103
16 31 121
16 32 175
16 33 206
16 34 211
16 35 201
16 36 163
16 37 52
16 38 32
16 39 91
16 40 51
16 41 195
16 42 187
16 43 232
16 44 83
16 45 63
16 46 186
16 47 102
16 48 217
16 49 135
16 50 93
16 51 178
16 52 201
16 53 73
16 54 1
16 55 217
16 56 51
16 57 161
16 58 47
16 59 192
16 60 140
16 61 79
16 62 114
16 63 55
16 64 91
16 65 11
16 66 164
16 67 100
16 68 138
16 69 186
16 70 168
16 71 163
16 72 159
16 73 131
16 74 220
16 75 56
16 76 12
16 77 52
16 78 189
16 79 187
16 80 12
17 18 152
17 19 158
17 20 136
17 21 114
17 22 66
17 23 84
17 24 97
17 25 78
17 26 23
17 27 127
17 28 208
17 29 52
17 30 164
17 31 83
17 32 219
17 33 161
17 34 139
17 35 54
17 36 168
17 37 165
17 38 24
17 39 102
17 40 10
17 41 156
17 42 168
17 43 104
17 44 184
17 45 49
17 46 51
17 47 39
17 48 179
17 49 79
17 50 110
17 51 178
17 52 124
17 53 64
17 54 178
17 55 151
17 56 163
17 57 7
17 58 172
17 59 140
17 60 164
17 61 155
17 62 235
17 63 17
17 64 93
17 65 84
17 66 229
17 67 216
17 68 214
17 69 7
17 70 117
17 71 168
17 72 211
17 73 49
17 74 121
17 75 32
17 76 66
17 77 219
17 78 193
17 79 22
17 80 173
18 19 82
18 20 183
18 21 199
18 22 8
18 23 122
18 24 43
18 25 37
18 26 166
18 27 55
18 28 122
18 29 161
18 30 234
18 31 135
18 32 142
18 33 182
18 34 61
18 35 235
18 36 77
18 37 183
18 38 192
18 39 141
18 40 167
18 41 108
18 42 201
18 43 144
18 44 77
18 45 176
18 46 119
18 47 213
18 48 163
18 49 190
18 50 30
18 51 11
18 52 233
18 53 42
18 54 114
18 55 145
18 56 192
18 57 162
18 58 157
18 59 70
18 60 175
18 61 86
18 62 113
18 63 141
18 64 128
18 65 128
18 66 78
18 67 229
18 68 102
18 69 86
18 70 7
18 71 73
18 72 223
18 73 68
18 74 189
18 75 162
18 76 158
18 77 90
18 78 116
18 79 82
18 80 170
19 20 125
19 21 221
19 22 40
19 23 113
19 24 138
19 25 148
19 26 147
19 27 190
19 28 15
19 29 1
19 30 176
19 31 161
19 32 87
19 33 206
19 34 204
19 35 210
19 36 189
19 37 61
19 38 149
19 39 234
19 40 162
19 41 206
19 42 175
19 43 37
19 44 233
19 45 100
19 46 194
19 47 204
19 48 39
19 49 223
19 50 63
19 51 41
19 52 123
19 53 174
19 54 220
19 55 207
19 56 66
19 57 179
19 58 172
19 59 97
19 60 24
19 61 226
19 62 78
19 63 28
19 64 226
19 65 237
19 66 68
19 67 45
19 68 106
19 69 34
19 70 153
19 71 133
19 72 55
19 73 13
19 74 210
19 75 57
19 76 222
19 77 110
19 78 207
19 79 113
19 80 217
20 21 83
20 22 77
20 23 72
20 24 109
20 25 13
20 26 7
20 27 38
20 28 179
20 29 17
20 30 181
20 31 104
20 32 110
20 33 106
20 34 150
20 35 60
20 36 74
20 37 66
20 38 69
20 39 197
20 40 67
20 41 8
20 42 208
20 43 193
20 44 131
20 45 88
20 46 106
20 47 191
20 48 54
20 49 4
20 50 66
20 51 183
20 52 63
20 53 75
20 54 19
20 55 166
20 56 11
20 57 180
20 58 101
20 59 22
20 60 227
20 61 102
20 62 35
20 63 121
20 64 159
20 65 74
20 66 101
20 67 85
20 68 190
20 69 156
20 70 161
20 71 14
20 72 145
20 73 224
20 74 45
20 75 1
20 76 12
20 77 155
20 78 117
20 79 217
20 80 17
21 22 5
21 23 146
21 24 177
21 25 109
21 26 71
21 27 144
21 28 97
21 29 14
21 30 129
21 31 115
21 32 120
21 33 196
21 34 204
21 35 126
21 36 2
21 37 161
21 38 213
21 39 105
21 40 193
21 41 199
21 42 31
21 43 68
21 44 20
21 45 80
21 46 150
21 47 57
21 48 144
21 49 96
21 50 123
21 51 196
21 52 90
21 53 50
21 54 159
21 55 199
21 56 209
21 57 185
21 58 126
21 59 234
21 60 50
21 61 214
21 62 14
21 63 74
21 64 89
21 65 25
21 66 17
21 67 231
21 68 148
21 69 3
21 70 222
21 71 111
21 72 78
21 73 84
21 74 92
21 75 63
21 76 14
21 77 221
21 78 172
21 79 142
21 80 153
22 23 30
22 24 58
22 25 215
22 26 47
22 27 121
22 28 85
22 29 87
22 30 164
22 31 138
22 32 235
22 33 229
22 34 7
22 35 202
22 36 14
22 37 65
22 38 33
22 39 117
22 40 239
22 41 179
22 42 185
22 43 179
22 44 156
22 45 187
22 46 77
22 47 195
22 48 215
22 49 167
22 50 212
22 51 150
22 52 227
22 53 157
22 54 220
22 55 60
22 56 168
22 57 6
22 58 76
22 59 96
22 60 55
22 61 97
22 62 51
22 63 70
22 64 91
22 65 10
22 66 57
22 67 166
22 68 121
22 69 177
22 70 9
22 71 142
22 72 201
22 73 128
22 74 121
22 75 31
22 76 182
22 77 120
22 78 179
22 79 56
22 80 222
23 24 239
23 25 239
23 26 215
23 27 122
23 28 3
23 29 79
23 30 191
23 31 0
23 32 16
23 33 98
23 34 178
23 35 211
23 36 7
23 37 138
23 38 7
23 39 208
23 40 139
23 41 42
23 42 7
23 43 3
23 44 42
23 45 3
23 46 238
23 47 5
23 48 210
23 49 134
23 50 108
23 51 100
23 52 154
23 53 133
23 54 84
23 55 90
23 56 143
23 57 188
23 58 198
23 59 175
23 60 121
23 61 105
23 62 139
23 63 107
23 64 54
23 65 81
23 66 119
23 67 92
23 68 219
23 69 229
23 70 18
23 71 186
23 72 238
23 73 177
23 74 75
23 75 73
23 76 1
23 77 184
23 78 82
23 79 32
23 80 162
24 25 20
24 26 50
24 27 46
24 28 155
24 29 108
24 30 160
24 31 186
24 32 119
24 33 82
24 34 213
24 35 120
24 36 218
24 37 56
24 38 208
24 39 75
24 40 55
24 41 216
24 42 52
24 43 171
24 44 36
24 45 52
24 46 132
24 47 26
24 48 6
24 49 221
24 50 126
24 51 148
24 52 8
24 53 168
24 54 86
24 55 169
24 56 56
24 57 114
24 58 14
24 59 212
24 60 194
24 61 182
24 62 73
24 63 229
24 64 69
24 65 105
24 66 201
24 67 161
24 68 157
24 69 235
24 70 16
24 71 149
24 72 102
24 73 231
24 74 96
24 75 120
24 76 77
24 77 149
24 78 61
24 79 225
24 80 44
25 26 191
25 27 97
25 28 183
25 29 210
25 30 164
25 31 77
25 32 182
25 33 7
25 34 195
25 35 85
25 36 121
25 37 175
25 38 122
25 39 101
25 40 130
25 41 148
25 42 105
25 43 227
25 44 236
25 45 191
25 46 55
25 47 72
25 48 25
25 49 229
25 50 162
25 51 31
25 52 12
25 53 221
25 54 112
25 55 207
25 56 238
25 57 149
25 58 180
25 59 128
25 60 197
25 61 101
25 62 229
25 63 4
25 64 223
25 65 91
25 66 124
25 67 163
25 68 70
25 69 144
25 70 203
25 71 222
25 72 239
25 73 10
25 74 193
25 75 167
25 76 92
25 77 109
25 78 79
25 79 206
25 80 27
26 27 20
26 28 113
26 29 42
26 30 71
26 31 197
26 32 232
26 33 154
26 34 209
26 35 152
26 36 5
26 37 27
26 38 82
26 39 34
26 40 141
26 41 89
26 42 158
26 43 197
26 44 28
26 45 70
26 46 182
26 47 39
26 48 184
26 49 62
26 50 220
26 51 65
26 52 30
26 53 137
26 54 228
26 55 195
26 56 130
26 57 235
26 58 192
26 59 126
26 60 112
26 61 31
26 62 173
26 63 163
26 64 8
26 65 225
26 66 7
26 67 231
26 68 186
26 69 87
26 70 13
26 71 116
26 72 204
26 73 103
26 74 38
26 75 15
26 76 147
26 77 186
26 78 135
26 79 83
26 80 149
27 28 190
27 29 117
27 30 165
27 31 44
27 32 168
27 33 149
27 34 54
27 35 135
27 36 95
27 37 203
27 38 6
27 39 151
27 40 173
27 41 18
27 42 235
27 43 144
27 44 27
27 45 177
27 46 95
27 47 115
27 48 130
27 49 135
27 50 21
27 51 105
27 52 153
27 53 95
27 54 204
27 55 165
27 56 197
27 57 194
27 58 47
27 59 95
27 60 64
27 61 140
27 62 230
27 63 68
27 64 145
27 65 107
27 66 90
27 67 174
27 68 117
27 69 27
27 70 225
27 71 132
27 72 228
27 73 237
27 74 176
27 75 91
27 76 129
27 77 144
27 78 5
27 79 148
27 80 0
28 29 99
28 30 84
28 31 162
28 32 27
28 33 73
28 34 3
28 35 202
28 36 237
28 37 198
28 38 45
28 39 159
28 40 163
28 41 82
28 42 173
28 43 58
28 44 100
28 45 198
28 46 230
28 47 70
28 48 22
28 49 151
28 50 141
28 51 198
28 52 90
28 53 98
28 54 52
28 55 182
28 56 2
28 57 87
28 58 219
28 59 136
28 60 98
28 61 209
28 62 114
28 63 75
28 64 190
28 65 72
28 66 185
28 67 208
28 68 177
28 69 160
28 70 5
28 71 100
28 72 26
28 73 184
28 74 63
28 75 74
28 76 219
28 77 64
28 78 64
28 79 153
28 80 161
29 30 54
29 31 78
29 32 143
29 33 171
29 34 218
29 35 18
29 36 54
29 37 59
29 38 163
29 39 145
29 40 174
29 41 236
29 42 215
29 43 171
29 44 227
29 45 141
29 46 135
29 47 193
29 48 185
29 49 200
29 50 17
29 51 134
29 52 221
29 53 202
29 54 98
29 55 90
29 56 178
29 57 57
29 58 219
29 59 151
29 60 134
29 61 212
29 62 66
29 63 96
29 64 61
29 65 21
29 66 193
29 67 179
29 68 183
29 69 173
29 70 56
29 71 40
29 72 216
29 73 160
29 74 150
29 75 149
29 76 23
29 77 64
29 78 222
29 79 43
29 80 199
30 31 33
30 32 197
30 33 118
30 34 213
30 35 137
30 36 216
30 37 161
30 38 113
30 39 142
30 40 150
30 41 232
30 42 192
30 43 149
30 44 99
30 45 176
30 46 52
30 47 161
30 48 81
30 49 130
30 50 17
30 51 219
30 52 55
30 53 79
30 54 12
30 55 4
30 56 208
30 57 48
30 58 215
30 59 60
30 60 168
30 61 119
30 62 109
30 63 211
30 64 21
30 65 184
30 66 206
30 67 150
30 68 229
30 69 223
30 70 194
30 71 232
30 72 50
30 73 133
30 74 99
30 75 37
30 76 40
30 77 184
30 78 227
30 79 199
30 80 203
31 32 37
31 33 11
31 34 211
31 35 78
31 36 229
31 37 229
31 38 179
31 39 108
31 40 14
31 41 101
31 42 80
31 43 131
31 44 8
31 45 239
31 46 160
31 47 228
31 48 42
31 49 7
31 50 118
31 51 181
31 52 11
31 53 239
31 54 42
31 55 172
31 56 117
31 57 184
31 58 163
31 59 177
31 60 210
31 61 18
31 62 96
31 63 127
31 64 8
31 65 16
31 66 110
31 67 65
31 68 76
31 69 14
31 70 160
31 71 91
31 72 55
31 73 133
31 74 62
31 75 106
31 76 234
31 77 43
31 78 69
31 79 143
31 80 92
32 33 98
32 34 89
32 35 108
32 36 217
32 37 0
32 38 19
32 39 160
32 40 113
32 41 108
32 42 147
32 43 216
32 44 40
32 45 18
32 46 102
32 47 132
32 48 21
32 49 202
32 50 37
32 51 121
32 52 180
32 53 172
32 54 93
32 55 218
32 56 123
32 57 200
32 58 206
32 59 67
32 60 150
32 61 166
32 62 20
32 63 119
32 64 11
32 65 87
32 66 87
32 67 134
32 68 226
32 69 91
32 70 163
32 71 22
32 72 78
32 73 224
32 74 148
32 75 141
32 76 133
32 77 130
32 78 208
32 79 69
32 80 31
33 34 131
33 35 6
33 36 96
33 37 180
33 38 90
33 39 105
33 40 197
33 41 191
33 42 134
33 43 24
33 44 161
33 45 106
33 46 123
33 47 231
33 48 34
33 49 202
33 50 234
33 51 69
33 52 112
33 53 227
33 54 8
33 55 145
33 56 156
33 57 203
33 58 118
33 59 139
33 60 152
33 61 213
33 62 8
33 63 62
33 64 89
33 65 67
33 66 97
33 67 121
33 68 131
33 69 168
33 70 144
33 71 67
33 72 81
33 73 155
33 74 98
33 75 229
33 76 93
33 77 86
33 78 8
33 79 74
33 80 165
34 35 47
34 36 130
34 37 191
34 38 126
34 39 164
34 40 120
34 41 214
34 42 21
34 43 163
34 44 79
34 45 227
34 46 138
34 47 148
34 48 0
34 49 9
34 50 91
34 51 208
34 52 162
34 53 130
34 54 159
34 55 21
34 56 163
34 57 52
34 58 3
34 59 216
34 60 81
34 61 76
34 62 169
34 63 69
34 64 53
34 65 39
34 66 101
34 67 161
34 68 99
34 69 40
34 70 60
34 71 123
34 72 150
34 73 15
34 74 35
34 75 29
34 76 96
34 77 127
34 78 28
34 79 39
34 80 146
35 36 159
35 37 70
35 38 110
35 39 119
35 40 132
35 41 0
35 42 189
35 43 206
35 44 126
35 45 21
35 46 135
35 47 137
35 48 162
35 49 121
35 50 168
35 51 77
35 52 180
35 53 194
35 54 205
35 55 108
35 56 92
35 57 214
35 58 176
35 59 109
35 60 197
35 61 186
35 62 38
35 63 0
35 64 59
35 65 60
35 66 227
35 67 105
35 68 209
35 69 25
35 70 33
35 71 130
35 72 45
35 73 73
35 74 222
35 75 8
35 76 78
35 77 212
35 78 216
35 79 159
35 80 39
36 37 138
36 38 181
36 39 16
36 40 188
36 41 99
36 42 15
36 43 33
36 44 104
36 45 13
36 46 164
36 47 187
36 48 87
36 49 17
36 50 29
36 51 3
36 52 68
36 53 7
36 54 131
36 55 203
36 56 60
36 57 43
36 58 80
36 59 110
36 60 72
36 61 195
36 62 181
36 63 137
36 64 150
36 65 53
36 66 102
36 67 5
36 68 185
36 69 225
36 70 153
36 71 66
36 72 231
36 73 9
36 74 70
36 75 69
36 76 5
36 77 46
36 78 179
36 79 185
36 80 51
37 38 50
37 39 94
37 40 101
37 41 56
37 42 90
37 43 197
37 44 62
37 45 71
37 46 120
37 47 161
37 48 207
37 49 239
37 50 206
37 51 10
37 52 63
37 53 110
37 54 93
37 55 148
37 56 83
37 57 233
37 58 198
37 59 139
37 60 73
37 61 48
37 62 166
37 63 135
37 64 158
37 65 231
37 66 166
37 67 141
37 68 160
37 69 68
37 70 105
37 71 39
37 72 193
37 73 205
37 74 153
37 75 126
37 76 212
37 77 96
37 78 31
37 79 143
37 80 74
38 39 190
38 40 146
38 41 229
38 42 222
38 43 231
38 44 88
38 45 207
38 46 150
38 47 78
38 48 59
38 49 190
38 50 40
38 51 230
38 52 136
38 53 98
38 54 231
38 55 53
38 56 8
38 57 135
38 58 170
38 59 82
38 60 145
38 61 129
38 62 23
38 63 1
38 64 175
38 65 210
38 66 39
38 67 233
38 68 58
38 69 199
38 70 168
38 71 81
38 72 76
38 73 77
38 74 104
38 75 39
38 76 121
38 77 108
38 78 140
38 79 71
38 80 232
39 40 124
39 41 3
39 42 8
39 43 233
39 44 198
39 45 92
39 46 227
39 47 144
39 48 66
39 49 61
39 50 78
39 51 47
39 52 169
39 53 228
39 54 62
39 55 175
39 56 21
39 57 82
39 58 20
39 59 183
39 60 29
39 61 18
39 62 48
39 63 223
39 64 166
39 65 26
39 66 233
39 67 117
39 68 185
39 69 53
39 70 213
39 71 81
39 72 93
39 73 114
39 74 53
39 75 192
39 76 177
39 77 36
39 78 112
39 79 35
39 80 193
40 41 134
40 42 167
40 43 18
40 44 222
40 45 179
40 46 215
40 47 71
40 48 56
40 49 160
40 50 9
40 51 144
40 52 4
40 53 238
40 54 71
40 55 220
40 56 185
40 57 206
40 58 24
40 59 167
40 60 159
40 61 193
40 62 30
40 63 119
40 64 96
40 65 66
40 66 215
40 67 163
40 68 193
40 69 184
40 70 57
40 71 182
40 72 114
40 73 1
40 74 8
40 75 70
40 76 29
40 77 232
40 78 194
40 79 71
40 80 18
41 42 44
41 43 49
41 44 158
41 45 18
41 46 15
41 47 114
41 48 36
41 49 17
41 50 85
41 51 193
41 52 60
41 53 24
41 54 8
41 55 31
41 56 4
41 57 147
41 58 234
41 59 170
41 60 225
41 61 73
41 62 135
41 63 159
41 64 113
41 65 76
41 66 32
41 67 129
41 68 174
41 69 197
41 70 153
41 71 229
41 72 229
41 73 139
41 74 59
41 75 180
41 76 154
41 77 123
41 78 96
41 79 182
41 80 139
42 43 136
42 44 108
42 45 35
42 46 144
42 47 33
42 48 127
42 49 122
42 50 141
42 51 134
42 52 191
42 53 184
42 54 214
42 55 29
42 56 142
42 57 34
42 58 231
42 59 3
42 60 100
42 61 186
42 62 37
42 63 55
42 64 130
42 65 149
42 66 148
42 67 50
42 68 111
42 69 127
42 70 111
42 71 157
42 72 0
42 73 49
42 74 161
42 75 83
42 76 166
42 77 235
42 78 69
42 79 188
42 80 168
43 44 55
43 45 58
43 46 34
43 47 75
43 48 202
43 49 30
43 50 51
43 51 140
43 52 119
43 53 131
43 54 212
43 55 52
43 56 95
43 57 178
43 58 124
43 59 127
43 60 77
43 61 143
43 62 215
43 63 239
43 64 20
43 65 239
43 66 6
43 67 61
43 68 55
43 69 94
43 70 154
43 71 42
43 72 136
43 73 14
43 74 115
43 75 22
43 76 106
43 77 229
43 78 91
43 79 181
43 80 16
44 45 239
44 46 16
44 47 214
44 48 54
44 49 10
44 50 210
44 51 216
44 52 155
44 53 196
44 54 226
44 55 35
44 56 233
44 57 72
44 58 135
44 59 168
44 60 114
44 61 21
44 62 233
44 63 21
44 64 119
44 65 174
44 66 233
44 67 100
44 68 59
44 69 159
44 70 76
44 71 43
44 72 74
44 73 109
44 74 103
44 75 108
44 76 139
44 77 24
44 78 80
44 79 211
44 80 129
45 46 4
45 47 1
45 48 235
45 49 40
45 50 200
45 51 150
45 52 133
45 53 35
45 54 229
45 55 210
45 56 237
45 57 11
45 58 222
45 59 102
45 60 135
45 61 175
45 62 192
45 63 115
45 64 157
45 65 37
45 66 215
45 67 179
45 68 40
45 69 123
45 70 129
45 71 226
45 72 17
45 73 171
45 74 20
45 75 202
45 76 89
45 77 36
45 78 188
45 79 169
45 80 55
46 47 212
46 48 120
46 49 202
46 50 221
46 51 32
46 52 130
46 53 131
46 54 14
46 55 50
46 56 188
46 57 101
46 58 13
46 59 116
46 60 33
46 61 18
46 62 232
46 63 8
46 64 142
46 65 94
46 66 105
46 67 211
46 68 136
46 69 69
46 70 238
46 71 198
46 72 157
46 73 147
46 74 71
46 75 235
46 76 177
46 77 30
46 78 179
46 79 127
46 80 160
47 48 178
47 49 170
47 50 129
47 51 219
47 52 156
47 53 99
47 54 25
47 55 52
47 56 223
47 57 81
47 58 14
47 59 195
47 60 108
47 61 72
47 62 236
47 63 31
47 64 151
47 65 126
47 66 139
47 67 88
47 68 49
47 69 61
47 70 53
47 71 198
47 72 203
47 73 171
47 74 190
47 75 172
47 76 206
47 77 230
47 78 34
47 79 143
47 80 13
48 49 98
48 50 40
48 51 3
48 52 211
48 53 58
48 54 206
48 55 125
48 56 50
48 57 64
48 58 6
48 59 166
48 60 56
48 61 178
48 62 183
48 63 238
48 64 122
48 65 202
48 66 10
48 67 108
48 68 12
48 69 155
48 70 16
48 71 79
48 72 190
48 73 129
48 74 233
48 75 95
48 76 185
48 77 22
48 78 102
48 79 195
48 80 60
49 50 143
49 51 14
49 52 122
49 53 65
49 54 77
49 55 197
49 56 187
49 57 112
49 58 165
49 59 213
49 60 202
49 61 53
49 62 87
49 63 143
49 64 54
49 65 104
49 66 184
49 67 6
49 68 144
49 69 208
49 70 183
49 71 0
49 72 57
49 73 130
49 74 60
49 75 35
49 76 64
49 77 65
49 78 107
49 79 239
49 80 57
50 51 155
50 52 165
50 53 226
50 54 10
50 55 112
50 56 12
50 57 104
50 58 76
50 59 100
50 60 217
50 61 53
50 62 61
50 63 33
50 64 226
50 65 87
50 66 153
50 67 151
50 68 53
50 69 90
50 70 55
50 71 6
50 72 132
50 73 51
50 74 55
50 75 93
50 76 149
50 77 94
50 78 95
50 79 190
50 80 122
51 52 140
51 53 156
51 54 202
51 55 134
51 56 208
51 57 221
51 58 165
51 59 72
51 60 43
51 61 5
51 62 2
51 63 104
51 64 93
51 65 80
51 66 169
51 67 86
51 68 179
51 69 231
51 70 36
51 71 171
51 72 62
51 73 69
51 74 150
51 75 83
51 76 5
51 77 164
51 78 42
51 79 121
51 80 207
52 53 3
52 54 33
52 55 56
52 56 37
52 57 77
52 58 35
52 59 204
52 60 24
52 61 102
52 62 166
52 63 64
52 64 60
52 65 236
52 66 221
52 67 21
52 68 140
52 69 156
52 70 118
52 71 168
52 72 200
52 73 193
52 74 83
52 75 34
52 76 72
52 77 163
52 78 150
52 79 39
52 80 130
53 54 61
53 55 93
53 56 208
53 57 17
53 58 183
53 59 27
53 60 23
53 61 25
53 62 232
53 63 85
53 64 42
53 65 181
53 66 27
53 67 149
53 68 83
53 69 89
53 70 75
53 71 231
53 72 77
53 73 75
53 74 204
53 75 31
53 76 73
53 77 141
53 78 17
53 79 13
53 80 122
54 55 27
54 56 233
54 57 94
54 58 190
54 59 23
54 60 41
54 61 36
54 62 159
54 63 183
54 64 228
54 65 128
54 66 146
54 67 206
54 68 73
54 69 31
54 70 96
54 71 90
54 72 168
54 73 117
54 74 231
54 75 215
54 76 82
54 77 220
54 78 89
54 79 17
54 80 234
55 56 71
55 57 148
55 58 200
55 59 49
55 60 56
55 61 210
55 62 89
55 63 193
55 64 9
55 65 27
55 66 223
55 67 232
55 68 50
55 69 126
55 70 83
55 71 164
55 72 7
55 73 142
55 74 40
55 75 28
55 76 124
55 77 115
55 78 132
55 79 3
55 80 111
56 57 130
56 58 206
56 59 56
56 60 221
56 61 124
56 62 234
56 63 187
56 64 224
56 65 164
56 66 229
56 67 104
56 68 75
56 69 81
56 70 218
56 71 14
56 72 137
56 73 171
56 74 221
56 75 191
56 76 106
56 77 26
56 78 234
56 79 93
56 80 66
57 58 66
57 59 64
57 60 104
57 61 12
57 62 188
57 63 70
57 64 74
57 65 180
57 66 56
57 67 173
57 68 208
57 69 133
57 70 67
57 71 226
57 72 178
57 73 233
57 74 203
57 75 0
57 76 139
57 77 141
57 78 147
57 79 163
57 80 50
58 59 26
58 60 179
58 61 108
58 62 137
58 63 132
58 64 110
58 65 183
58 66 117
58 67 170
58 68 237
58 69 37
58 70 46
58 71 149
58 72 10
58 73 61
58 74 141
58 75 180
58 76 3
58 77 91
58 78 98
58 79 166
58 80 86
59 60 217
59 61 31
59 62 233
59 63 216
59 64 3
59 65 122
59 66 70
59 67 71
59 68 101
59 69 59
59 70 235
59 71 166
59 72 7
59 73 178
59 74 195
59 75 129
59 76 101
59 77 170
59 78 14
59 79 109
59 80 11
60 61 207
60 62 139
60 63 165
60 64 8
60 65 190
60 66 146
60 67 71
60 68 122
60 69 75
60 70 49
60 71 30
60 72 39
60 73 171
60 74 123
60 75 223
60 76 222
60 77 107
60 78 183
60 79 72
60 80 136
61 62 228
61 63 163
61 64 82
61 65 121
61 66 173
61 67 47
61 68 237
61 69 138
61 70 108
61 71 97
61 72 61
61 73 140
61 74 182
61 75 129
61 76 73
61 77 125
61 78 0
61 79 59
61 80 48
62 63 27
62 64 26
62 65 63
62 66 98
62 67 100
62 68 86
62 69 227
62 70 178
62 71 35
62 72 79
62 73 24
62 74 197
62 75 70
62 76 182
62 77 195
62 78 148
62 79 38
62 80 230
63 64 237
63 65 36
63 66 98
63 67 181
63 68 1
63 69 77
63 70 191
63 71 31
63 72 183
63 73 101
63 74 5
63 75 220
63 76 129
63 77 155
63 78 125
63 79 138
63 80 227
64 65 103
64 66 72
64 67 99
64 68 44
64 69 26
64 70 177
64 71 202
64 72 159
64 73 110
64 74 120
64 75 147
64 76 88
64 77 31
64 78 114
64 79 60
64 80 119
65 66 148
65 67 43
65 68 186
65 69 213
65 70 162
65 71 121
65 72 8
65 73 66
65 74 26
65 75 154
65 76 62
65 77 222
65 78 143
65 79 64
65 80 70
66 67 176
66 68 1
66 69 233
66 70 203
66 71 54
66 72 199
66 73 110
66 74 84
66 75 214
66 76 9
66 77 226
66 78 127
66 79 155
66 80 81
67 68 236
67 69 79
67 70 236
67 71 83
67 72 43
67 73 108
67 74 186
67 75 195
67 76 153
67 77 115
67 78 39
67 79 206
67 80 11
68 69 146
68 70 54
68 71 101
68 72 23
68 73 84
68 74 173
68 75 168
68 76 79
68 77 60
68 78 175
68 79 128
68 80 171
69 70 132
69 71 214
69 72 93
69 73 30
69 74 0
69 75 193
69 76 22
69 77 14
69 78 178
69 79 226
69 80 14
70 71 102
70 72 93
70 73 231
70 74 42
70 75 225
70 76 140
70 77 144
70 78 146
70 79 86
70 80 192
71 72 11
71 73 234
71 74 136
71 75 61
71 76 190
71 77 89
71 78 140
71 79 35
71 80 184
72 73 8
72 74 20
72 75 138
72 76 134
72 77 117
72 78 124
72 79 108
72 80 217
73 74 55
73 75 194
73 76 140
73 77 104
73 78 210
73 79 27
73 80 175
74 75 34
74 76 158
74 77 45
74 78 210
74 79 27
74 80 24
75 76 20
75 77 92
75 78 179
75 79 115
75 80 158
76 77 55
76 78 154
76 79 121
76 80 119
77 78 185
77 79 103
77 80 161
78 79 161
78 80 223
79 80 105
